language ESSENCE' 1.0

letting jobs = 102
letting horizon = 825
letting resourcesRenew = 2
letting resourcesNonrenew = 2
letting resourceLimits = [34, 36, 573, 606]
letting successors = [[2, 3, 4, 5, 6, 7, 8, 9, 10, 11, 12, 13, 14, 15, 16, 19, 23, 25, 28, 32], [44, 42, 36, 35, 33, 30, 27, 26, 22, 21, 18, 17], [63, 54, 45, 44, 41, 36, 31, 26, 18], [59, 56, 54, 52, 51, 50, 46, 45, 43, 40, 39, 38, 37, 34, 29], [54, 47, 44, 43, 42, 40, 37, 22, 18], [59, 54, 46, 43, 34, 31, 29, 22, 17], [59, 58, 51, 49, 48, 47, 46, 44, 42, 41, 40, 39, 35], [80, 63, 59, 51, 48, 47, 45, 43, 41, 29, 20], [63, 58, 54, 51, 49, 48, 47, 46, 45, 42, 41, 39, 26], [64, 59, 56, 54, 51, 45, 43, 42, 39, 38, 24], [59, 56, 51, 49, 47, 46, 41, 40, 39, 27], [42, 27, 17], [80, 58, 56, 51, 47, 35, 26], [80, 59, 52, 51, 43, 41, 38, 29], [67, 63, 61, 59, 58, 56, 53, 52, 51, 49, 46, 43, 40], [66, 58, 52, 51, 48, 47, 44, 41, 40, 39], [63, 62, 57, 56, 52, 51, 50, 49, 48, 41, 39], [80, 60, 59, 56, 52, 51, 48, 46, 29], [80, 75, 67, 66, 62, 60, 59, 58, 55, 54, 52, 47, 42], [67, 56, 55, 52, 50, 42, 40], [66, 56, 52, 51, 47, 41, 40], [64, 62, 57, 55, 53, 51, 50, 49, 48], [66, 56, 49, 41, 38], [76, 66, 62, 61, 60, 58, 55, 53, 52, 49, 48], [76, 65, 64, 63, 61, 59, 56, 53, 52, 49, 43], [68, 67, 61, 53, 52, 50, 40], [83, 70, 69, 68, 64, 61, 58, 57, 52, 50, 48], [66, 63, 61, 53, 49, 40], [100, 99, 76, 75, 74, 67, 66, 65, 64, 62, 58, 57, 55, 53, 49], [101, 68, 67, 62, 58, 57, 56, 53, 52, 47], [75, 71, 66, 60, 57, 56, 55, 52, 47], [100, 62, 58, 55, 53, 52, 49, 48], [83, 74, 65, 61, 58, 50, 43], [99, 80, 76, 66, 49, 41], [74, 63, 52, 50, 43], [99, 83, 75, 74, 56, 43], [80, 77, 73, 72, 69, 68, 67, 66, 65, 64, 63, 61, 58, 53], [76, 72, 70, 62, 61, 55, 48], [101, 99, 98, 81, 80, 75, 74, 73, 65, 61, 55, 53], [101, 100, 99, 95, 79, 76, 75, 74, 73, 71, 70, 69, 65, 64, 62, 57], [100, 96, 81, 77, 75, 74, 73, 65, 60, 55, 53], [101, 99, 98, 77, 73, 69, 65, 61, 57, 53], [100, 96, 81, 77, 73, 72, 71, 70, 66, 62, 60, 55], [100, 99, 98, 96, 81, 77, 76, 74, 72, 55, 53], [101, 99, 96, 94, 81, 77, 75, 74, 73, 72, 69, 53], [101, 100, 99, 98, 96, 95, 94, 91, 90, 83, 81, 79, 78, 77, 75, 73, 71, 70, 69], [99, 94, 83, 81, 79, 76, 74, 72, 70, 69, 64, 61], [101, 99, 98, 96, 95, 94, 93, 77, 75, 74, 71, 67, 65], [96, 95, 94, 83, 81, 79, 78, 77, 73, 72, 71, 70, 68], [100, 99, 91, 89, 82, 76, 72, 66, 60], [101, 97, 95, 94, 93, 90, 88, 82, 79, 78, 74, 69], [99, 97, 96, 90, 89, 88, 79, 78, 77, 73], [95, 91, 90, 89, 83, 82, 79, 78, 71, 70], [100, 94, 93, 91, 90, 88, 83, 82, 78, 69], [94, 92, 79, 78, 69, 68], [98, 96, 95, 91, 90, 89, 87, 82, 78, 70], [96, 94, 92, 90, 89, 81, 78, 72], [98, 93, 92, 91, 90, 89, 88, 87, 84, 79], [101, 99, 96, 94, 93, 90, 88, 85, 84, 82], [101, 98, 95, 94, 93, 92, 87, 86, 78], [100, 96, 95, 92, 89, 88, 87, 84, 82], [98, 94, 93, 92, 89, 88, 87, 78], [100, 99, 95, 88, 87, 82, 78], [92, 91, 90, 89, 87, 86, 78], [91, 90, 89, 87, 82, 78], [94, 92, 90, 88, 85, 84], [91, 89, 87, 86, 85, 84], [93, 91, 89, 88, 82], [89, 87, 86, 84], [88, 86, 85, 84], [97, 87, 85, 84], [88, 87, 85, 84], [93, 87, 85, 84], [92, 91, 87, 84], [88, 87, 86, 84], [90, 88, 86, 84], [92, 85, 82], [85, 84], [86, 85], [91, 90], [82], [86], [85], [102], [102], [102], [102], [102], [102], [102], [102], [102], [102], [102], [102], [102], [102], [102], [102], [102], [102], []]
letting durations = [[0], [3, 7, 8], [2, 8, 9], [1, 2, 4], [4, 5, 9], [5, 8, 9], [6, 7, 9], [6, 8, 10], [4, 5, 9], [3, 4, 8], [3, 4, 6], [1, 6, 9], [1, 5, 10], [2, 8, 10], [1, 2, 9], [2, 3, 4], [1, 4, 9], [3, 4, 10], [1, 2, 4], [4, 6, 7], [5, 6, 10], [1, 3, 5], [1, 2, 10], [2, 5, 8], [3, 6, 8], [1, 2, 7], [3, 4, 8], [7, 8, 9], [3, 5, 9], [1, 2, 8], [2, 7, 8], [1, 3, 8], [2, 6, 8], [2, 3, 8], [1, 5, 6], [1, 2, 7], [3, 4, 6], [4, 5, 9], [5, 6, 10], [3, 8, 10], [3, 6, 10], [2, 5, 9], [4, 6, 7], [2, 3, 7], [1, 3, 9], [4, 5, 9], [1, 3, 8], [1, 3, 4], [6, 9, 10], [1, 2, 4], [2, 4, 9], [2, 8, 10], [4, 8, 9], [5, 6, 10], [3, 4, 5], [2, 5, 6], [4, 6, 8], [2, 5, 10], [1, 2, 9], [1, 8, 10], [3, 4, 5], [3, 4, 8], [2, 8, 10], [3, 4, 9], [2, 9, 10], [4, 7, 8], [1, 8, 9], [4, 6, 9], [6, 8, 9], [2, 6, 8], [4, 5, 7], [3, 5, 6], [4, 6, 10], [4, 8, 10], [2, 5, 8], [4, 5, 9], [6, 8, 9], [6, 8, 10], [7, 8, 10], [7, 8, 10], [2, 3, 10], [4, 5, 7], [1, 2, 9], [1, 9, 10], [8, 9, 10], [2, 4, 5], [2, 4, 6], [1, 8, 9], [1, 6, 10], [1, 5, 7], [2, 6, 7], [1, 2, 9], [3, 8, 10], [1, 6, 10], [5, 6, 10], [2, 8, 9], [1, 3, 8], [3, 7, 8], [2, 3, 6], [1, 3, 5], [6, 7, 8], [0]]
letting resourceUsage = [[[0, 0, 0, 0]], [[3, 3, 4, 9], [1, 3, 4, 9], [1, 3, 3, 9]], [[4, 4, 3, 8], [2, 3, 3, 5], [2, 2, 1, 2]], [[5, 3, 4, 8], [4, 3, 4, 4], [3, 2, 2, 1]], [[5, 2, 1, 8], [3, 1, 1, 5], [3, 1, 1, 4]], [[1, 3, 2, 4], [1, 1, 2, 4], [1, 1, 2, 3]], [[2, 2, 5, 6], [1, 2, 5, 3], [1, 1, 4, 2]], [[4, 4, 5, 4], [4, 4, 5, 3], [4, 4, 1, 3]], [[3, 4, 8, 6], [3, 4, 8, 3], [2, 4, 8, 2]], [[4, 5, 6, 3], [4, 4, 6, 2], [4, 4, 3, 1]], [[5, 4, 5, 10], [4, 3, 5, 8], [4, 3, 5, 7]], [[3, 4, 8, 6], [2, 3, 8, 6], [2, 2, 7, 4]], [[2, 2, 3, 6], [1, 1, 2, 6], [1, 1, 2, 5]], [[4, 4, 4, 9], [4, 4, 2, 6], [4, 3, 1, 5]], [[1, 4, 7, 9], [1, 4, 4, 9], [1, 4, 3, 8]], [[3, 4, 3, 2], [3, 3, 3, 2], [3, 3, 3, 1]], [[3, 2, 6, 8], [3, 1, 4, 7], [1, 1, 1, 5]], [[3, 3, 10, 9], [1, 3, 9, 8], [1, 3, 8, 5]], [[4, 3, 10, 10], [4, 2, 9, 4], [3, 1, 8, 4]], [[2, 4, 8, 4], [2, 4, 7, 2], [2, 4, 5, 2]], [[5, 3, 6, 9], [4, 3, 6, 7], [3, 3, 6, 6]], [[3, 3, 1, 9], [2, 2, 1, 5], [1, 2, 1, 2]], [[4, 1, 4, 9], [3, 1, 4, 6], [2, 1, 3, 2]], [[3, 2, 1, 7], [3, 1, 1, 6], [1, 1, 1, 4]], [[3, 5, 9, 8], [3, 3, 6, 6], [2, 2, 4, 6]], [[3, 2, 9, 6], [2, 2, 7, 6], [1, 2, 7, 3]], [[5, 2, 8, 5], [4, 1, 5, 3], [4, 1, 4, 2]], [[2, 4, 6, 10], [2, 4, 5, 7], [2, 4, 4, 5]], [[4, 5, 7, 7], [3, 4, 7, 5], [3, 4, 6, 4]], [[2, 4, 5, 8], [2, 3, 4, 6], [2, 3, 2, 6]], [[5, 5, 4, 7], [3, 4, 2, 7], [2, 2, 1, 5]], [[2, 3, 6, 4], [2, 3, 6, 3], [2, 3, 4, 3]], [[4, 3, 4, 6], [4, 2, 4, 5], [4, 1, 4, 1]], [[2, 5, 8, 7], [1, 3, 7, 4], [1, 3, 7, 3]], [[3, 5, 6, 8], [1, 3, 3, 8], [1, 3, 2, 8]], [[3, 3, 9, 7], [3, 3, 9, 4], [1, 3, 8, 2]], [[5, 4, 8, 6], [3, 3, 8, 6], [3, 3, 8, 2]], [[4, 3, 9, 7], [3, 3, 7, 4], [2, 3, 7, 3]], [[5, 3, 5, 7], [3, 3, 5, 4], [3, 2, 3, 4]], [[4, 4, 3, 7], [3, 3, 3, 5], [3, 3, 3, 1]], [[4, 4, 5, 7], [4, 2, 5, 5], [3, 2, 4, 4]], [[5, 1, 6, 8], [3, 1, 6, 6], [3, 1, 4, 4]], [[4, 2, 4, 6], [3, 2, 3, 3], [2, 2, 2, 3]], [[1, 3, 5, 4], [1, 2, 4, 3], [1, 1, 3, 2]], [[5, 5, 2, 6], [4, 4, 1, 6], [3, 4, 1, 6]], [[3, 3, 10, 8], [3, 3, 9, 7], [3, 1, 9, 3]], [[3, 4, 9, 8], [3, 4, 8, 7], [3, 4, 8, 5]], [[4, 4, 5, 8], [4, 4, 2, 5], [4, 4, 2, 4]], [[4, 5, 9, 7], [4, 3, 9, 7], [4, 3, 9, 6]], [[3, 4, 1, 6], [3, 2, 1, 6], [3, 2, 1, 5]], [[4, 2, 4, 6], [4, 1, 3, 5], [4, 1, 1, 5]], [[3, 4, 10, 6], [2, 4, 8, 5], [2, 3, 8, 1]], [[4, 3, 7, 10], [3, 3, 6, 7], [2, 3, 4, 7]], [[4, 2, 7, 4], [4, 1, 5, 4], [3, 1, 5, 4]], [[3, 4, 8, 7], [2, 3, 6, 6], [2, 2, 4, 6]], [[5, 3, 6, 9], [2, 2, 5, 7], [2, 1, 5, 7]], [[3, 4, 4, 8], [3, 4, 3, 6], [2, 4, 2, 4]], [[4, 1, 2, 9], [4, 1, 2, 8], [4, 1, 2, 7]], [[4, 2, 5, 2], [3, 2, 4, 1], [3, 2, 3, 1]], [[4, 4, 10, 6], [4, 3, 9, 4], [4, 3, 9, 3]], [[4, 3, 5, 7], [3, 3, 5, 5], [2, 3, 5, 5]], [[2, 4, 8, 9], [2, 4, 4, 8], [2, 4, 2, 7]], [[1, 4, 6, 8], [1, 4, 5, 8], [1, 4, 5, 7]], [[1, 4, 8, 4], [1, 3, 7, 4], [1, 3, 7, 2]], [[4, 4, 7, 8], [3, 3, 7, 6], [3, 3, 7, 5]], [[2, 3, 9, 9], [1, 3, 8, 9], [1, 3, 8, 8]], [[3, 2, 8, 7], [1, 2, 5, 4], [1, 2, 4, 4]], [[2, 4, 9, 8], [1, 3, 9, 7], [1, 3, 8, 7]], [[4, 4, 4, 7], [3, 3, 2, 6], [2, 2, 1, 4]], [[3, 3, 6, 6], [2, 2, 5, 4], [2, 2, 4, 4]], [[2, 3, 7, 7], [2, 3, 4, 7], [1, 1, 4, 7]], [[3, 1, 1, 9], [3, 1, 1, 8], [3, 1, 1, 7]], [[4, 5, 6, 8], [3, 5, 6, 7], [3, 5, 6, 1]], [[3, 3, 9, 5], [2, 3, 9, 5], [2, 1, 8, 4]], [[2, 4, 6, 6], [2, 2, 5, 6], [2, 2, 1, 3]], [[4, 4, 7, 5], [4, 2, 7, 5], [2, 1, 7, 2]], [[3, 3, 3, 8], [2, 2, 3, 8], [2, 2, 3, 7]], [[4, 2, 9, 9], [3, 1, 9, 4], [1, 1, 7, 3]], [[4, 4, 4, 10], [3, 4, 3, 8], [3, 4, 1, 8]], [[4, 5, 10, 4], [4, 4, 9, 4], [2, 2, 7, 3]], [[3, 4, 10, 4], [3, 3, 8, 3], [2, 3, 5, 2]], [[4, 4, 7, 4], [3, 3, 6, 2], [3, 2, 5, 1]], [[3, 1, 10, 6], [3, 1, 7, 4], [3, 1, 1, 2]], [[3, 4, 5, 2], [3, 4, 3, 2], [3, 4, 3, 1]], [[3, 4, 8, 3], [3, 3, 6, 2], [2, 1, 4, 1]], [[4, 5, 6, 4], [4, 3, 5, 2], [4, 1, 4, 1]], [[3, 4, 4, 5], [3, 4, 4, 4], [1, 4, 4, 5]], [[4, 3, 8, 4], [2, 3, 7, 2], [2, 3, 6, 2]], [[4, 3, 7, 7], [3, 3, 5, 7], [2, 3, 5, 7]], [[4, 3, 9, 6], [4, 2, 7, 6], [4, 2, 6, 4]], [[5, 3, 7, 5], [4, 2, 7, 5], [3, 2, 7, 4]], [[2, 2, 4, 10], [1, 1, 3, 10], [1, 1, 2, 10]], [[3, 4, 8, 5], [2, 4, 7, 4], [2, 4, 6, 2]], [[2, 4, 9, 5], [2, 3, 8, 3], [2, 3, 8, 2]], [[5, 4, 7, 6], [3, 3, 7, 3], [3, 1, 6, 1]], [[2, 2, 7, 5], [2, 2, 7, 4], [2, 1, 7, 3]], [[1, 4, 8, 6], [1, 2, 4, 5], [1, 1, 2, 5]], [[5, 1, 7, 9], [3, 1, 5, 6], [2, 1, 2, 4]], [[3, 3, 5, 7], [3, 2, 4, 5], [3, 2, 4, 4]], [[4, 2, 7, 7], [4, 2, 6, 7], [3, 2, 6, 6]], [[5, 3, 6, 8], [3, 2, 6, 8], [3, 2, 5, 6]], [[0, 0, 0, 0]]]
